# Solution for model GasLib-40
# Objective value = 1.3370380600097333e+01
loadshed[innode_1] 0
loadshed[innode_2] 0
loadshed[innode_3] 0
loadshed[innode_4] 0
loadshed[innode_5] 0
loadshed[innode_6] 0
loadshed[innode_7] 0
loadshed[innode_8] 0
loadshed[source_1] -3.0793036093253057e-01
loadshed[source_2] 9.8115651392351677e-02
loadshed[source_3] 2.9438904762094686e-01
loadshed[sink_1] 0
loadshed[sink_2] 0
loadshed[sink_3] 0
loadshed[sink_4] 0
loadshed[sink_5] 0
loadshed[sink_6] 0
loadshed[sink_7] 0
loadshed[sink_8] 0
loadshed[sink_9] 0
loadshed[sink_10] 0
loadshed[sink_11] 0
loadshed[sink_12] 8.1755193478302157e-01
loadshed[sink_13] 0
loadshed[sink_14] 0
loadshed[sink_15] 0
loadshed[sink_16] 0
loadshed[sink_17] 0
loadshed[sink_18] 0
loadshed[sink_19] 0
loadshed[sink_20] 0
loadshed[sink_21] 0
loadshed[sink_22] 0
loadshed[sink_23] 0
loadshed[sink_24] 0
loadshed[sink_25] 0
loadshed[sink_26] 0
loadshed[sink_27] 0
loadshed[sink_28] 0
loadshed[sink_29] 0
flow[source_1,sink_3] 2.0677107407381288e+02
flow[innode_1,sink_16] 1.6354166666666970e+01
flow[innode_6,sink_13] 2.9289352020333226e+00
flow[sink_13,sink_14] -1.3425231464633345e+01
flow[sink_14,sink_10] -2.9779398131300013e+01
flow[sink_25,sink_26] 1.7814987043194816e+02
flow[sink_26,sink_9] 1.5017128606657030e+02
flow[sink_9,sink_18] 1.3381711939990365e+02
flow[sink_26,sink_4] 1.1624417698711270e+01
flow[sink_4,sink_20] -1.6370849339912446e+01
flow[sink_18,sink_6] 1.1746295273323699e+02
flow[sink_25,innode_8] -1.7406274074047653e+02
flow[sink_6,sink_7] 68.4004527332363
flow[sink_6,sink_22] 3.2708333333333641e+01
flow[sink_7,sink_24] 3.5692119399902673e+01
flow[sink_22,sink_1] 1.6354166666666970e+01
flow[sink_24,sink_21] 19.337952733236
flow[sink_21,sink_12] 2.9837860665693348e+00
flow[sink_7,sink_5] 1.6354166666667368e+01
flow[sink_5,sink_17] 0
flow[sink_17,sink_4] -1.1641100371957052e+01
flow[sink_17,sink_8] -4.7130662947096162e+00
flow[sink_3,sink_23] 16.3541666666697
flow[sink_8,sink_20] -2.1067232961376284e+01
flow[sink_25,sink_20] 53.7922489679554
flow[sink_25,sink_15] -7.7162480528128370e+01
flow[sink_15,sink_29] -1.0987081386147929e+02
flow[sink_29,sink_28] 1.6354166666667879e+01
flow[sink_29,sink_2] 0
flow[sink_2,sink_15] -1.6354166666684250e+01
flow[sink_29,innode_7] -1.4257914719481329e+02
flow[innode_4,sink_19] 9.5196064797967139e+01
flow[sink_19,innode_3] 3.8474513496603464e+01
flow[innode_4,innode_5] 1.6354166666679703e+01
flow[sink_27,innode_5] -1.6354166666679703e+01
flow[sink_27,sink_19] 0
flow[sink_10,sink_11] 3.2708333333333641e+01
flow[sink_10,innode_2] -4.0367384634696855e+01
flow[sink_10,innode_3] -3.8474513496603464e+01
flow[innode_6,sink_25] -2.9289352020333226e+00
flow[sink_11,innode_1] 1.6354166666666970e+01
flow[sink_19,innode_2] 4.0367384634696855e+01
flow[source_3,innode_4] 1.1155023146464684e+02
flow[source_2,innode_7] 1.4257914719481329e+02
flow[sink_3,innode_8] 1.7406274074047653e+02
pressure[innode_1] 7.4871330545772580e+01
pressure[innode_2] 7.7156614854078768e+01
pressure[innode_3] 7.7071417400706565e+01
pressure[innode_4] 81.01325
pressure[innode_5] 8.1002000741808772e+01
pressure[innode_6] 7.3606629271403833e+01
pressure[innode_7] 81.01325
pressure[innode_8] 8.0322093288784586e+01
pressure[source_1] 81.01325
pressure[source_2] 81.01325
pressure[source_3] 81.01325
pressure[sink_1] 4.1991909060960630e+01
pressure[sink_2] 7.3927549741004640e+01
pressure[sink_3] 8.0322093288784586e+01
pressure[sink_4] 5.9581679966948521e+01
pressure[sink_5] 3.6352441470428644e+01
pressure[sink_6] 44.092986671348
pressure[sink_7] 4.3154011497323360e+01
pressure[sink_8] 5.9314631731618796e+01
pressure[sink_9] 5.2071499465994250e+01
pressure[sink_10] 7.5023031853376125e+01
pressure[sink_11] 7.4871330545772580e+01
pressure[sink_12] 1.01325
pressure[sink_13] 7.3590482541105558e+01
pressure[sink_14] 7.3614508136388380e+01
pressure[sink_15] 7.3980942490771085e+01
pressure[sink_16] 73.8496807109549
pressure[sink_17] 5.9136795496074257e+01
pressure[sink_18] 4.7229597242496489e+01
pressure[sink_19] 7.7156614854078768e+01
pressure[sink_20] 6.0782721594819485e+01
pressure[sink_21] 2.0750443857328942e+00
pressure[sink_22] 4.3055678203315637e+01
pressure[sink_23] 80.1573752771248
pressure[sink_24] 2.2891942451525953e+00
pressure[sink_25] 7.3606629271403833e+01
pressure[sink_26] 6.1059638518498737e+01
pressure[sink_27] 8.0866291377726043e+01
pressure[sink_28] 7.6904534092088980e+01
pressure[sink_29] 7.7199816365706155e+01
interdiction[source_1,sink_3] 0
interdiction[innode_1,sink_16] 0
interdiction[innode_6,sink_13] 0
interdiction[sink_13,sink_14] 0
interdiction[sink_14,sink_10] 0
interdiction[sink_25,sink_26] 0
interdiction[sink_26,sink_9] 0
interdiction[sink_9,sink_18] 0
interdiction[sink_26,sink_4] 0
interdiction[sink_4,sink_20] 0
interdiction[sink_18,sink_6] 0
interdiction[sink_25,innode_8] 0
interdiction[sink_6,sink_7] 0
interdiction[sink_6,sink_22] 0
interdiction[sink_7,sink_24] 0
interdiction[sink_22,sink_1] 0
interdiction[sink_24,sink_21] 0
interdiction[sink_21,sink_12] 0
interdiction[sink_7,sink_5] 0
interdiction[sink_5,sink_17] 1
interdiction[sink_17,sink_4] 0
interdiction[sink_17,sink_8] 0
interdiction[sink_3,sink_23] 0
interdiction[sink_8,sink_20] 0
interdiction[sink_25,sink_20] 0
interdiction[sink_25,sink_15] 0
interdiction[sink_15,sink_29] 0
interdiction[sink_29,sink_28] 0
interdiction[sink_29,sink_2] 1
interdiction[sink_2,sink_15] 0
interdiction[sink_29,innode_7] 0
interdiction[innode_4,sink_19] 0
interdiction[sink_19,innode_3] 0
interdiction[innode_4,innode_5] 0
interdiction[sink_27,innode_5] 0
interdiction[sink_27,sink_19] 1
interdiction[sink_10,sink_11] 0
interdiction[sink_10,innode_2] 0
interdiction[sink_10,innode_3] 0
interdiction[innode_6,sink_25] 0
interdiction[sink_11,innode_1] 0
interdiction[sink_19,innode_2] 0
interdiction[source_3,innode_4] 0
interdiction[source_2,innode_7] 0
interdiction[sink_3,innode_8] 0
WCcheckFlow[source_1,sink_3] 39
WCcheckFlow[innode_1,sink_16] 1
WCcheckFlow[innode_6,sink_13] 13
WCcheckFlow[sink_13,sink_14] 12
WCcheckFlow[sink_14,sink_10] 11
WCcheckFlow[sink_25,sink_26] 15
WCcheckFlow[sink_26,sink_9] 10
WCcheckFlow[sink_9,sink_18] 9
WCcheckFlow[sink_26,sink_4] 4
WCcheckFlow[sink_4,sink_20] 1
WCcheckFlow[sink_18,sink_6] 8
WCcheckFlow[sink_25,innode_8] -36
WCcheckFlow[sink_6,sink_7] 5
WCcheckFlow[sink_6,sink_22] 2
WCcheckFlow[sink_7,sink_24] 3
WCcheckFlow[sink_22,sink_1] 1
WCcheckFlow[sink_24,sink_21] 2
WCcheckFlow[sink_21,sink_12] 1
WCcheckFlow[sink_7,sink_5] 1
WCcheckFlow[sink_5,sink_17] 0
WCcheckFlow[sink_17,sink_4] -2
WCcheckFlow[sink_17,sink_8] 1
WCcheckFlow[sink_3,sink_23] 1
WCcheckFlow[sink_8,sink_20] 0
WCcheckFlow[sink_25,sink_20] 0
WCcheckFlow[sink_25,sink_15] 6
WCcheckFlow[sink_15,sink_29] 4
WCcheckFlow[sink_29,sink_28] 1
WCcheckFlow[sink_29,sink_2] 0
WCcheckFlow[sink_2,sink_15] -1
WCcheckFlow[sink_29,innode_7] 2
WCcheckFlow[innode_4,sink_19] -4
WCcheckFlow[sink_19,innode_3] -5
WCcheckFlow[innode_4,innode_5] 2
WCcheckFlow[sink_27,innode_5] -1
WCcheckFlow[sink_27,sink_19] 0
WCcheckFlow[sink_10,sink_11] 3
WCcheckFlow[sink_10,innode_2] 1
WCcheckFlow[sink_10,innode_3] 6
WCcheckFlow[innode_6,sink_25] -14
WCcheckFlow[sink_11,innode_1] 2
WCcheckFlow[sink_19,innode_2] 0
WCcheckFlow[source_3,innode_4] -1
WCcheckFlow[source_2,innode_7] -1
WCcheckFlow[sink_3,innode_8] 37
